COMUNI = {
	spoleto,
	magione,
	castiglione_del_lago,
	narni,
	bastia_umbra,
	amelia,
	gualdo_tardino,
	san_giustino,
	orvieto,
	terni,
};

NUMERO_COMUNI = 10;

ABITANTI_PER_COMUNE = [36, 14, 15, 17, 21, 11, 14, 11, 19, 106];

STRADE_TRA_COMUNI = [|
	false, false, false, false, false, false, false, false, false, true |
	false, false, true, false, false, false, false, false, false, false |
	false, true, false, false, false, false, false, false, false, false |
	false, false, false, false, false, true, false, false, false, true |
	false, false, false, false, false, false, false, false, false, false |
	false, false, false, true, false, false, false, false, false, false |
	false, false, false, false, false, false, false, false, false, false |
	false, false, false, false, false, false, false, false, false, false |
	false, false, false, false, false, false, false, false, false, false |
	true, false, false, true, false, false, false, false, false, false |
|];

RICHIESTE = [|
	392, 50, 226, 8, 196 |
	116, 102, 144, 76, 257 |
	105, 85, 159, 93, 79 |
	63, 216, 1, 59, 28 |
	341, 1481, 213, 153, 878 |
	156, 25, 3, 209, 796 |
	333, 251, 87, 72, 236 |
	355, 568, 17, 208, 18 |
	296, 146, 178, 22, 41 |
	61, 306, 53, 0, 19 |
|];
